
Gurobi 8.1.1 (mac64, Python) logging started Tue Jun 25 17:44:49 2019

Academic license - for non-commercial use only

Gurobi 8.1.1 (mac64, Python) logging started Wed Jun 26 15:40:49 2019

Academic license - for non-commercial use only

Gurobi 8.1.1 (mac64, Python) logging started Wed Jun 26 15:41:20 2019

Academic license - for non-commercial use only

Gurobi 8.1.1 (mac64, Python) logging started Wed Jun 26 15:42:41 2019

Academic license - for non-commercial use only

Gurobi 8.1.1 (mac64, Python) logging started Wed Jun 26 15:43:37 2019

Academic license - for non-commercial use only

Gurobi 8.1.1 (mac64, Python) logging started Wed Jun 26 15:44:02 2019

Academic license - for non-commercial use only

Gurobi 8.1.1 (mac64, Python) logging started Wed Jun 26 15:47:00 2019

Academic license - for non-commercial use only

Gurobi 8.1.1 (mac64, Python) logging started Wed Jun 26 15:49:08 2019

Academic license - for non-commercial use only

Gurobi 8.1.1 (mac64, Python) logging started Wed Jun 26 15:49:18 2019

Academic license - for non-commercial use only

Gurobi 8.1.1 (mac64, Python) logging started Wed Jun 26 15:54:29 2019

Academic license - for non-commercial use only

Gurobi 8.1.1 (mac64, Python) logging started Wed Jun 26 15:56:18 2019

Academic license - for non-commercial use only

Gurobi 8.1.1 (mac64, Python) logging started Wed Jun 26 15:57:08 2019

Academic license - for non-commercial use only

Gurobi 8.1.1 (mac64, Python) logging started Wed Jun 26 15:57:51 2019

Academic license - for non-commercial use only

Gurobi 8.1.1 (mac64, Python) logging started Wed Jun 26 15:58:31 2019

Academic license - for non-commercial use only

Gurobi 8.1.1 (mac64, Python) logging started Wed Jun 26 15:58:48 2019

Academic license - for non-commercial use only

Gurobi 8.1.1 (mac64, Python) logging started Wed Jun 26 16:05:03 2019

Academic license - for non-commercial use only

Gurobi 8.1.1 (mac64, Python) logging started Wed Jun 26 16:05:06 2019

Academic license - for non-commercial use only

Gurobi 8.1.1 (mac64, Python) logging started Wed Jun 26 16:06:18 2019

Academic license - for non-commercial use only

Gurobi 8.1.1 (mac64, Python) logging started Wed Jun 26 16:06:54 2019

Academic license - for non-commercial use only

Gurobi 8.1.1 (mac64, Python) logging started Wed Jun 26 16:07:27 2019

Academic license - for non-commercial use only

Gurobi 8.1.1 (mac64, Python) logging started Wed Jun 26 16:08:01 2019

Academic license - for non-commercial use only

Gurobi 8.1.1 (mac64, Python) logging started Wed Jun 26 16:08:23 2019

Academic license - for non-commercial use only

Gurobi 8.1.1 (mac64, Python) logging started Wed Jun 26 16:09:00 2019

Academic license - for non-commercial use only

Gurobi 8.1.1 (mac64, Python) logging started Wed Jun 26 16:16:05 2019

Academic license - for non-commercial use only

Gurobi 8.1.1 (mac64, Python) logging started Wed Jun 26 16:24:46 2019

Academic license - for non-commercial use only

Gurobi 8.1.1 (mac64, Python) logging started Wed Jun 26 16:25:00 2019

Academic license - for non-commercial use only

Gurobi 8.1.1 (mac64, Python) logging started Wed Jun 26 16:25:42 2019

Academic license - for non-commercial use only

Gurobi 8.1.1 (mac64, Python) logging started Wed Jun 26 16:26:06 2019

Academic license - for non-commercial use only

Gurobi 8.1.1 (mac64, Python) logging started Wed Jun 26 16:27:00 2019

Academic license - for non-commercial use only

Gurobi 8.1.1 (mac64, Python) logging started Wed Jun 26 16:27:15 2019

Academic license - for non-commercial use only

Gurobi 8.1.1 (mac64, Python) logging started Wed Jun 26 16:32:48 2019

Academic license - for non-commercial use only

Gurobi 8.1.1 (mac64, Python) logging started Wed Jun 26 16:33:31 2019

Academic license - for non-commercial use only

Gurobi 8.1.1 (mac64, Python) logging started Wed Jun 26 16:33:44 2019

Academic license - for non-commercial use only

Gurobi 8.1.1 (mac64, Python) logging started Wed Jun 26 16:39:19 2019

Academic license - for non-commercial use only

Gurobi 8.1.1 (mac64, Python) logging started Wed Jun 26 16:39:28 2019

Academic license - for non-commercial use only

Gurobi 8.1.1 (mac64, Python) logging started Wed Jun 26 16:41:22 2019

Academic license - for non-commercial use only

Gurobi 8.1.1 (mac64, Python) logging started Wed Jun 26 16:42:21 2019

Academic license - for non-commercial use only

Gurobi 8.1.1 (mac64, Python) logging started Wed Jun 26 16:43:37 2019

Academic license - for non-commercial use only

Gurobi 8.1.1 (mac64, Python) logging started Wed Jun 26 16:44:15 2019

Academic license - for non-commercial use only

Gurobi 8.1.1 (mac64, Python) logging started Wed Jun 26 16:44:41 2019

Academic license - for non-commercial use only

Gurobi 8.1.1 (mac64, Python) logging started Wed Jun 26 16:44:56 2019

Academic license - for non-commercial use only

Gurobi 8.1.1 (mac64, Python) logging started Wed Jun 26 16:45:53 2019

Academic license - for non-commercial use only

Gurobi 8.1.1 (mac64, Python) logging started Wed Jun 26 16:45:56 2019

Academic license - for non-commercial use only

Gurobi 8.1.1 (mac64, Python) logging started Wed Jun 26 16:46:42 2019

Academic license - for non-commercial use only

Gurobi 8.1.1 (mac64, Python) logging started Wed Jun 26 16:48:41 2019

Academic license - for non-commercial use only

Gurobi 8.1.1 (mac64, Python) logging started Wed Jun 26 16:48:56 2019

Academic license - for non-commercial use only

Gurobi 8.1.1 (mac64, Python) logging started Wed Jun 26 16:49:10 2019

Academic license - for non-commercial use only

Gurobi 8.1.1 (mac64, Python) logging started Wed Jun 26 16:49:45 2019

Academic license - for non-commercial use only

Gurobi 8.1.1 (mac64, Python) logging started Wed Jun 26 16:49:56 2019

Academic license - for non-commercial use only

Gurobi 8.1.1 (mac64, Python) logging started Wed Jun 26 16:50:38 2019

Academic license - for non-commercial use only

Gurobi 8.1.1 (mac64, Python) logging started Wed Jun 26 16:51:31 2019

Academic license - for non-commercial use only

Gurobi 8.1.1 (mac64, Python) logging started Wed Jun 26 16:52:32 2019

Academic license - for non-commercial use only

Gurobi 8.1.1 (mac64, Python) logging started Wed Jun 26 16:53:46 2019

Academic license - for non-commercial use only

Gurobi 8.1.1 (mac64, Python) logging started Wed Jun 26 16:54:07 2019

Academic license - for non-commercial use only

Gurobi 8.1.1 (mac64, Python) logging started Wed Jun 26 16:54:20 2019

Academic license - for non-commercial use only

Gurobi 8.1.1 (mac64, Python) logging started Wed Jun 26 16:54:26 2019

Academic license - for non-commercial use only

Gurobi 8.1.1 (mac64, Python) logging started Wed Jun 26 16:55:41 2019

Academic license - for non-commercial use only

Gurobi 8.1.1 (mac64, Python) logging started Wed Jun 26 16:55:55 2019

Academic license - for non-commercial use only

Gurobi 8.1.1 (mac64, Python) logging started Wed Jun 26 16:56:05 2019

Academic license - for non-commercial use only

Gurobi 8.1.1 (mac64, Python) logging started Wed Jun 26 16:56:18 2019

Academic license - for non-commercial use only

Gurobi 8.1.1 (mac64, Python) logging started Wed Jun 26 16:56:32 2019

Academic license - for non-commercial use only

Gurobi 8.1.1 (mac64, Python) logging started Wed Jun 26 16:56:43 2019

Academic license - for non-commercial use only

Gurobi 8.1.1 (mac64, Python) logging started Wed Jun 26 16:57:28 2019

Academic license - for non-commercial use only

Gurobi 8.1.1 (mac64, Python) logging started Wed Jun 26 16:58:31 2019

Academic license - for non-commercial use only

Gurobi 8.1.1 (mac64, Python) logging started Wed Jun 26 16:59:32 2019

Academic license - for non-commercial use only

Gurobi 8.1.1 (mac64, Python) logging started Wed Jun 26 16:59:51 2019

Academic license - for non-commercial use only

Gurobi 8.1.1 (mac64, Python) logging started Wed Jun 26 17:00:54 2019

Academic license - for non-commercial use only

Gurobi 8.1.1 (mac64, Python) logging started Wed Jun 26 17:01:15 2019

Academic license - for non-commercial use only

Gurobi 8.1.1 (mac64, Python) logging started Wed Jun 26 17:01:32 2019

Academic license - for non-commercial use only

Gurobi 8.1.1 (mac64, Python) logging started Wed Jun 26 17:02:05 2019

Academic license - for non-commercial use only

Gurobi 8.1.1 (mac64, Python) logging started Wed Jun 26 17:02:19 2019

Academic license - for non-commercial use only

Gurobi 8.1.1 (mac64, Python) logging started Wed Jun 26 17:04:03 2019

Academic license - for non-commercial use only

Gurobi 8.1.1 (mac64, Python) logging started Wed Jun 26 17:05:04 2019

Academic license - for non-commercial use only

Gurobi 8.1.1 (mac64, Python) logging started Wed Jun 26 17:05:18 2019

Academic license - for non-commercial use only

Gurobi 8.1.1 (mac64, Python) logging started Wed Jun 26 17:05:51 2019

Academic license - for non-commercial use only
Optimize a model with 34 rows, 152 columns and 312 nonzeros
Variable types: 0 continuous, 152 integer (8 binary)
Coefficient statistics:
  Matrix range     [1e+00, 8e+02]
  Objective range  [9e+01, 3e+05]
  Bounds range     [1e+00, 1e+00]
  RHS range        [1e+01, 2e+03]
Found heuristic solution: objective 4.662703e+07
Presolve time: 0.01s
Presolved: 34 rows, 152 columns, 312 nonzeros
Variable types: 0 continuous, 152 integer (8 binary)

Root relaxation: objective 1.253888e+03, 50 iterations, 0.00 seconds

    Nodes    |    Current Node    |     Objective Bounds      |     Work
 Expl Unexpl |  Obj  Depth IntInf | Incumbent    BestBd   Gap | It/Node Time

     0     0 1253.88750    0    4 4.6627e+07 1253.88750   100%     -    0s
H    0     0                    1634.0000000 1253.88750  23.3%     -    0s
H    0     0                    1614.0000000 1253.88750  22.3%     -    0s
     0     0 1356.00000    0    4 1614.00000 1356.00000  16.0%     -    0s
H    0     0                    1464.0000000 1356.00000  7.38%     -    0s
     0     0 1367.47586    0   13 1464.00000 1367.47586  6.59%     -    0s
     0     0 1367.47586    0   17 1464.00000 1367.47586  6.59%     -    0s
     0     0 1367.47586    0   21 1464.00000 1367.47586  6.59%     -    0s
     0     0 1367.47586    0   26 1464.00000 1367.47586  6.59%     -    0s
     0     0 1367.47586    0   28 1464.00000 1367.47586  6.59%     -    0s
     0     0 1373.35125    0   20 1464.00000 1373.35125  6.19%     -    0s
     0     0 1380.41250    0    3 1464.00000 1380.41250  5.71%     -    0s
     0     0 1380.41250    0    3 1464.00000 1380.41250  5.71%     -    0s
     0     0 infeasible    0      1464.00000 1464.00000  0.00%     -    0s

Explored 1 nodes (128 simplex iterations) in 0.04 seconds
Thread count was 4 (of 4 available processors)

Solution count 4: 1464 1614 1634 4.6627e+07 

Optimal solution found (tolerance 1.00e-04)
Best objective 1.464000000000e+03, best bound 1.464000000000e+03, gap 0.0000%
